solution status: optimal solution found
objective value:                                   51
x0_1                                                1 	(obj:0)
x1_2                                                1 	(obj:0)
x2_6                                                1 	(obj:0)
x3_5                                                1 	(obj:0)
x4_4                                                1 	(obj:0)
x5_3                                                1 	(obj:0)
x6_7                                                1 	(obj:0)
quadobjvar                                         51 	(obj:1)
